Version identifier: 22.1.0.0 | 2022-03-09 | 1a383f8ce
CPXPARAM_Read_DataCheck                          1
1 of 1 MIP starts provided solutions.
MIP start 'm1' defined initial solution with objective 44.0000.
Tried aggregator 4 times.
MIP Presolve eliminated 33384 rows and 4330 columns.
MIP Presolve modified 533 coefficients.
Aggregator did 30035 substitutions.
Reduced MIP has 4532 rows, 30843 columns, and 66239 nonzeros.
Reduced MIP has 30817 binaries, 26 generals, 0 SOSs, and 0 indicators.
Presolve time = 0.29 sec. (333.54 ticks)
Tried aggregator 1 time.
Detecting symmetries...
Reduced MIP has 4532 rows, 30843 columns, and 66239 nonzeros.
Reduced MIP has 30817 binaries, 26 generals, 0 SOSs, and 0 indicators.
Presolve time = 0.05 sec. (48.38 ticks)
Probing fixed 41 vars, tightened 0 bounds.
Probing time = 0.10 sec. (16.94 ticks)
Clique table members: 62691.
MIP emphasis: balance optimality and feasibility.
MIP search method: dynamic search.
Parallel mode: deterministic, using up to 8 threads.
Root relaxation solution time = 0.34 sec. (240.06 ticks)

        Nodes                                         Cuts/
   Node  Left     Objective  IInf  Best Integer    Best Bound    ItCnt     Gap

*     0+    0                           44.0000        0.0000           100.00%
      0     0       26.4106  3428       44.0000       26.4106     4057   39.98%
      0     0       43.0000   588       44.0000      Cuts: 52     9142    2.27%
      0     0       43.0000   577       44.0000      Cuts: 74    17221    2.27%

Repeating presolve.
Tried aggregator 3 times.
MIP Presolve eliminated 915 rows and 15843 columns.
MIP Presolve modified 4 coefficients.
Aggregator did 740 substitutions.
Reduced MIP has 2877 rows, 14260 columns, and 31183 nonzeros.
Reduced MIP has 14260 binaries, 0 generals, 0 SOSs, and 0 indicators.
Presolve time = 0.07 sec. (64.29 ticks)
Represolve time = 0.14 sec. (108.21 ticks)

Root node processing (before b&c):
  Real time             =   19.73 sec. (9671.84 ticks)
Parallel b&c, 8 threads:
  Real time             =    0.00 sec. (0.00 ticks)
  Sync time (average)   =    0.00 sec.
  Wait time (average)   =    0.00 sec.
                          ------------
Total (root+branch&cut) =   19.73 sec. (9671.84 ticks)
